10
10
1010101
0
0
86 99 89 86 52 16 79 82 44 50 
1
0
89 93 80 93 60 14 81 83 41 55 
2
0
92 96 83 95 57 9 75 80 47 52 
3
0
89 97 89 96 57 9 83 87 46 57 
4
0
91 97 82 95 57 19 79 90 39 54 
5
0
90 100 84 96 52 9 81 83 41 48 
6
0
91 95 84 88 54 9 85 82 45 56 
7
0
92 94 91 86 53 14 79 84 39 53 
8
0
84 89 80 96 58 11 77 80 44 50 
9
0
90 98 81 91 61 12 83 83 43 49 
